% actual SOAS user data
n = 33;
m = 12;

possibles = [
            1..12 diff {1,2},
            {3,4,5,6,11,12},
            7..12,
            9..12,
            {12, 10, 8},
            7..12,
            9..12,
            7..12,
            7..12,
            7..12,
            7..12,
            {7,9,11},
            9..12, 
            3..12,
            1..12 diff {2,6,12},
            3..6,
            {i | i in 1..12 where i mod 2 = 0},
            3..12,
            3..12,
            1..6,
            9..12,
            9..12,
            7..12,
            7..12,
            3..8,
            10..12,
            7..10,
            {7,11,12},
            4..6,
            7..12,
            1..12 diff {1,2, 7, 8},
            7..12,
            1..6
];

impossibles = [
            {1,2},
            {7,8,9,10},
            1..6,
            {}, 
            1..2,
            1..6,
            {},
            1..6,
            1..6,
            1..6,
            1..6,
            1..6,
            1..6,
            1..2,
            {2,6,12},
            {},
            {i | i in 1..12 where i mod 2 = 1},
            1..2,
            {},
            7..12,
            1..8,
            3..6,
            1..6,
            1..6,
            {},
            {},
            1..6,
            1..12 diff {7,11,12},
            1..12 diff 4..6,
            1..6,
            {1,2, 7, 8},
            1..6,
            7..12         
];

studentNames = [
  "Fridolin Mayr",
  "Denis Jaschik",
  "Markus Hofmann",
  "Wenzel Pilar von Pilchau",
  "David Meier",
  "Michael Schmid",
  "Pascal Stucky",
  "Thomas Rothmeier",
  "Roman Sraj",
  "Patrick Blickling",
  "Michael Heider",
  "Stefan Fendt",
  "Thomas Kramer",
  "Kevin Bichler",
  "Oliver Witthus",
  "Sebastian Witthus",
  "Dominik Zehentbauer",
  "Wolfgang Wermund",
  "Linus Daniel Straub",
  "Daniel Kraljevic",
  "Robin Han",
  "Simon Rittel",
  "Fabian Sauerborn",
  "Davin Geiger",
  "Tobias Foth",
  "Dominik Auer",
  "Matthias Lieb",
  "Fabian Schober",
  "Antonio Grieco",
  "Erich Glaser",
  "Daniel Eckhard",
  "Miriam Berschneider",
  "Jan Brucher"
];

dateNames = [
           "12. Februar 2016 - Vormittag ",
           "12. Februar 2016 - Nachmittag",
           "18. Februar 2016 - Vormittag ",
           "18. Februar 2016 - Nachmittag",
           "19. Februar 2016 - Vormittag ",
           "19. Februar 2016 - Nachmittag",
           "24. Februar 2016 - Vormittag ",
           "24. Februar 2016 - Nachmittag",
           "25. Februar 2016 - Vormittag ",
           "25. Februar 2016 - Nachmittag",           
           "26. Februar 2016 - Vormittag ",
           "26. Februar 2016 - Nachmittag"
];